SimulationType                  MonteCarlo
NumberOfCycles                  50000
NumberOfInitializationCycles    5000
PrintEvery                      1000
RestartFile                     no
Movies                          no
WriteMoviesEvery                100

Forcefield                      Local
UseChargesFromCIFFile           yes
ChargeMethod                    Ewald
CutOff                          12.8

Framework                       0
FrameworkName                   uio66-CF3-2
InputFileType                   cif
RemoveAtomNumberCodeFromLabel   yes
UnitCells                       2 2 2

ExternalTemperature             298

Component 0 MoleculeName              helium
            MoleculeDefinition        TraPPE
            WidomProbability            1.0
            CreateNumberOfMolecules     0
