SimulationType                  MonteCarlo
NumberOfCycles                  50000
NumberOfInitializationCycles    1000
PrintEvery                      1000
RestartFile                     no
Movies                          yes
WriteMoviesEvery                100

Forcefield                      Local
UseChargesFromCIFFile           yes
ChargeMethod                    Ewald
CutOff                          12.8

Framework                       0
FrameworkName                   uio66-CF3-2
InputFileType                   cif
UnitCells                       2 2 2
HeliumVoidFraction              1.0

ExternalTemperature             373.15
ExternalPressure               1170.0
# 1500 pascals (15 mbar) * %N2: 1500 * 0.78

Component 0 MoleculeName              N2
            MoleculeDefinition        TraPPE
            IdealGasRosenbluthWeight  1.00001
            MolFraction                 1.0
            FugacityCoefficient         1.0

            SwapProbability             1.0
            TranslationProbability      0.5
            RotationProbability         0.5

            CreateNumberOfMolecules     0
