SimulationType        MonteCarlo
NumberOfCycles        20000
PrintEvery            1000
PrintPropertiesEvery  1000

Forcefield                      Local

Box 0
BoxLengths 30 30 30
ExternalTemperature 298.0

Component 0 MoleculeName              TIP4P-1
            WidomProbability          1.0
            CreateNumberOfMolecules   0

Component 1 MoleculeName              CO2
            MoleculeDefinition        TraPPE
            WidomProbability          1.0
            CreateNumberOfMolecules   0

Component 2 MoleculeName              N2
            MoleculeDefinition        TraPPE
            WidomProbability          1.0
            CreateNumberOfMolecules   0
